\ENCODING=ISO-8859-1
\Problem name: IloCplex

Maximize
 obj: x_0 + x_1 + x_2 + x_3 + x_4 + x_5 + x_6 + x_7 + x_8 + x_9 + x_10 + x_11
      + x_12 + x_13 + x_14 + x_15 + x_16 + x_17 + x_18 + x_19 + x_20 + x_21
      + x_22 + x_23 + x_24 + x_25 + x_26 + x_27 + x_28 + x_29 + x_30 + x_31
      + x_32 + x_33 + x_34 + x_35 + x_36 + x_37 + x_38 + x_39 + x_40 + x_41
      + x_42 + x_43 + x_44 + x_45 + x_46 + x_47 + x_48 + x_49 + x_50 + x_51
      + x_52 + x_53 + x_54 + x_55 + x_56 + x_57 + x_58 + x_59 + x_60 + x_61
      + x_62 + x_63 + x_64 + x_65 + x_66 + x_67 + x_68 + x_69 + x_70 + x_71
      + x_72 + x_73 + x_74 + x_75 + x_76 + x_77 + x_78 + x_79 + x_80 + x_81
      + x_82 + x_83 + x_84 + x_85 + x_86 + x_87 + x_88 + x_89 + x_90 + x_91
      + x_92 + x_93 + x_94 + x_95 + x_96 + x_97 + x_98 + x_99
Subject To
 Cst_TwoCirc_1_38:  x_1 + x_38 <= 1
 Cst_TwoCirc_1_36:  x_1 + x_36 <= 1
 Cst_TwoCirc_1_21:  x_1 + x_21 <= 1
 Cst_TwoCirc_4_82:  x_4 + x_82 <= 1
 Cst_TwoCirc_4_40:  x_4 + x_40 <= 1
 Cst_TwoCirc_6_22:  x_6 + x_22 <= 1
 Cst_TwoCirc_8_13:  x_8 + x_13 <= 1
 Cst_TwoCirc_8_37:  x_8 + x_37 <= 1
 Cst_TwoCirc_8_9:   x_8 + x_9 <= 1
 Cst_TwoCirc_9_8:   x_8 + x_9 <= 1
 Cst_TwoCirc_10_27: x_10 + x_27 <= 1
 Cst_TwoCirc_10_64: x_10 + x_64 <= 1
 Cst_TwoCirc_10_14: x_10 + x_14 <= 1
 Cst_TwoCirc_11_51: x_11 + x_51 <= 1
 Cst_TwoCirc_12_67: x_12 + x_67 <= 1
 Cst_TwoCirc_13_8:  x_8 + x_13 <= 1
 Cst_TwoCirc_14_10: x_10 + x_14 <= 1
 Cst_TwoCirc_14_43: x_14 + x_43 <= 1
 Cst_TwoCirc_14_96: x_14 + x_96 <= 1
 Cst_TwoCirc_17_59: x_17 + x_59 <= 1
 Cst_TwoCirc_19_67: x_19 + x_67 <= 1
 Cst_TwoCirc_19_65: x_19 + x_65 <= 1
 Cst_TwoCirc_20_46: x_20 + x_46 <= 1
 Cst_TwoCirc_21_44: x_21 + x_44 <= 1
 Cst_TwoCirc_21_30: x_21 + x_30 <= 1
 Cst_TwoCirc_21_1:  x_1 + x_21 <= 1
 Cst_TwoCirc_22_6:  x_6 + x_22 <= 1
 Cst_TwoCirc_24_42: x_24 + x_42 <= 1
 Cst_TwoCirc_25_53: x_25 + x_53 <= 1
 Cst_TwoCirc_26_51: x_26 + x_51 <= 1
 Cst_TwoCirc_26_65: x_26 + x_65 <= 1
 Cst_TwoCirc_27_10: x_10 + x_27 <= 1
 Cst_TwoCirc_27_40: x_27 + x_40 <= 1
 Cst_TwoCirc_27_41: x_27 + x_41 <= 1
 Cst_TwoCirc_28_58: x_28 + x_58 <= 1
 Cst_TwoCirc_29_77: x_29 + x_77 <= 1
 Cst_TwoCirc_30_21: x_21 + x_30 <= 1
 Cst_TwoCirc_30_69: x_30 + x_69 <= 1
 Cst_TwoCirc_33_60: x_33 + x_60 <= 1
 Cst_TwoCirc_34_78: x_34 + x_78 <= 1
 Cst_TwoCirc_34_46: x_34 + x_46 <= 1
 Cst_TwoCirc_34_55: x_34 + x_55 <= 1
 Cst_TwoCirc_35_62: x_35 + x_62 <= 1
 Cst_TwoCirc_35_55: x_35 + x_55 <= 1
 Cst_TwoCirc_36_1:  x_1 + x_36 <= 1
 Cst_TwoCirc_37_68: x_37 + x_68 <= 1
 Cst_TwoCirc_37_96: x_37 + x_96 <= 1
 Cst_TwoCirc_37_85: x_37 + x_85 <= 1
 Cst_TwoCirc_37_8:  x_8 + x_37 <= 1
 Cst_TwoCirc_38_1:  x_1 + x_38 <= 1
 Cst_TwoCirc_38_79: x_38 + x_79 <= 1
 Cst_TwoCirc_39_82: x_39 + x_82 <= 1
 Cst_TwoCirc_40_4:  x_4 + x_40 <= 1
 Cst_TwoCirc_40_27: x_27 + x_40 <= 1
 Cst_TwoCirc_41_27: x_27 + x_41 <= 1
 Cst_TwoCirc_42_24: x_24 + x_42 <= 1
 Cst_TwoCirc_43_14: x_14 + x_43 <= 1
 Cst_TwoCirc_43_64: x_43 + x_64 <= 1
 Cst_TwoCirc_44_21: x_21 + x_44 <= 1
 Cst_TwoCirc_46_34: x_34 + x_46 <= 1
 Cst_TwoCirc_46_20: x_20 + x_46 <= 1
 Cst_TwoCirc_46_96: x_46 + x_96 <= 1
 Cst_TwoCirc_47_65: x_47 + x_65 <= 1
 Cst_TwoCirc_47_76: x_47 + x_76 <= 1
 Cst_TwoCirc_49_59: x_49 + x_59 <= 1
 Cst_TwoCirc_51_26: x_26 + x_51 <= 1
 Cst_TwoCirc_51_11: x_11 + x_51 <= 1
 Cst_TwoCirc_53_25: x_25 + x_53 <= 1
 Cst_TwoCirc_53_75: x_53 + x_75 <= 1
 Cst_TwoCirc_55_34: x_34 + x_55 <= 1
 Cst_TwoCirc_55_35: x_35 + x_55 <= 1
 Cst_TwoCirc_58_28: x_28 + x_58 <= 1
 Cst_TwoCirc_59_17: x_17 + x_59 <= 1
 Cst_TwoCirc_59_49: x_49 + x_59 <= 1
 Cst_TwoCirc_60_33: x_33 + x_60 <= 1
 Cst_TwoCirc_62_35: x_35 + x_62 <= 1
 Cst_TwoCirc_64_10: x_10 + x_64 <= 1
 Cst_TwoCirc_64_43: x_43 + x_64 <= 1
 Cst_TwoCirc_65_26: x_26 + x_65 <= 1
 Cst_TwoCirc_65_19: x_19 + x_65 <= 1
 Cst_TwoCirc_65_47: x_47 + x_65 <= 1
 Cst_TwoCirc_67_12: x_12 + x_67 <= 1
 Cst_TwoCirc_67_19: x_19 + x_67 <= 1
 Cst_TwoCirc_68_37: x_37 + x_68 <= 1
 Cst_TwoCirc_69_30: x_30 + x_69 <= 1
 Cst_TwoCirc_69_81: x_69 + x_81 <= 1
 Cst_TwoCirc_75_53: x_53 + x_75 <= 1
 Cst_TwoCirc_76_47: x_47 + x_76 <= 1
 Cst_TwoCirc_77_29: x_29 + x_77 <= 1
 Cst_TwoCirc_78_34: x_34 + x_78 <= 1
 Cst_TwoCirc_79_38: x_38 + x_79 <= 1
 Cst_TwoCirc_81_69: x_69 + x_81 <= 1
 Cst_TwoCirc_82_39: x_39 + x_82 <= 1
 Cst_TwoCirc_82_4:  x_4 + x_82 <= 1
 Cst_TwoCirc_85_37: x_37 + x_85 <= 1
 Cst_TwoCirc_89_98: x_89 + x_98 <= 1
 Cst_TwoCirc_96_46: x_46 + x_96 <= 1
 Cst_TwoCirc_96_14: x_14 + x_96 <= 1
 Cst_TwoCirc_96_37: x_37 + x_96 <= 1
 Cst_TwoCirc_98_89: x_89 + x_98 <= 1
Bounds
 0 <= x_0 <= 1
 0 <= x_1 <= 1
 0 <= x_2 <= 1
 0 <= x_3 <= 1
 0 <= x_4 <= 1
 0 <= x_5 <= 1
 0 <= x_6 <= 1
 0 <= x_7 <= 1
 0 <= x_8 <= 1
 0 <= x_9 <= 1
 0 <= x_10 <= 1
 0 <= x_11 <= 1
 0 <= x_12 <= 1
 0 <= x_13 <= 1
 0 <= x_14 <= 1
 0 <= x_15 <= 1
 0 <= x_16 <= 1
 0 <= x_17 <= 1
 0 <= x_18 <= 1
 0 <= x_19 <= 1
 0 <= x_20 <= 1
 0 <= x_21 <= 1
 0 <= x_22 <= 1
 0 <= x_23 <= 1
 0 <= x_24 <= 1
 0 <= x_25 <= 1
 0 <= x_26 <= 1
 0 <= x_27 <= 1
 0 <= x_28 <= 1
 0 <= x_29 <= 1
 0 <= x_30 <= 1
 0 <= x_31 <= 1
 0 <= x_32 <= 1
 0 <= x_33 <= 1
 0 <= x_34 <= 1
 0 <= x_35 <= 1
 0 <= x_36 <= 1
 0 <= x_37 <= 1
 0 <= x_38 <= 1
 0 <= x_39 <= 1
 0 <= x_40 <= 1
 0 <= x_41 <= 1
 0 <= x_42 <= 1
 0 <= x_43 <= 1
 0 <= x_44 <= 1
 0 <= x_45 <= 1
 0 <= x_46 <= 1
 0 <= x_47 <= 1
 0 <= x_48 <= 1
 0 <= x_49 <= 1
 0 <= x_50 <= 1
 0 <= x_51 <= 1
 0 <= x_52 <= 1
 0 <= x_53 <= 1
 0 <= x_54 <= 1
 0 <= x_55 <= 1
 0 <= x_56 <= 1
 0 <= x_57 <= 1
 0 <= x_58 <= 1
 0 <= x_59 <= 1
 0 <= x_60 <= 1
 0 <= x_61 <= 1
 0 <= x_62 <= 1
 0 <= x_63 <= 1
 0 <= x_64 <= 1
 0 <= x_65 <= 1
 0 <= x_66 <= 1
 0 <= x_67 <= 1
 0 <= x_68 <= 1
 0 <= x_69 <= 1
 0 <= x_70 <= 1
 0 <= x_71 <= 1
 0 <= x_72 <= 1
 0 <= x_73 <= 1
 0 <= x_74 <= 1
 0 <= x_75 <= 1
 0 <= x_76 <= 1
 0 <= x_77 <= 1
 0 <= x_78 <= 1
 0 <= x_79 <= 1
 0 <= x_80 <= 1
 0 <= x_81 <= 1
 0 <= x_82 <= 1
 0 <= x_83 <= 1
 0 <= x_84 <= 1
 0 <= x_85 <= 1
 0 <= x_86 <= 1
 0 <= x_87 <= 1
 0 <= x_88 <= 1
 0 <= x_89 <= 1
 0 <= x_90 <= 1
 0 <= x_91 <= 1
 0 <= x_92 <= 1
 0 <= x_93 <= 1
 0 <= x_94 <= 1
 0 <= x_95 <= 1
 0 <= x_96 <= 1
 0 <= x_97 <= 1
 0 <= x_98 <= 1
 0 <= x_99 <= 1
Binaries
 x_0  x_1  x_2  x_3  x_4  x_5  x_6  x_7  x_8  x_9  x_10  x_11  x_12  x_13 
 x_14  x_15  x_16  x_17  x_18  x_19  x_20  x_21  x_22  x_23  x_24  x_25  x_26 
 x_27  x_28  x_29  x_30  x_31  x_32  x_33  x_34  x_35  x_36  x_37  x_38  x_39 
 x_40  x_41  x_42  x_43  x_44  x_45  x_46  x_47  x_48  x_49  x_50  x_51  x_52 
 x_53  x_54  x_55  x_56  x_57  x_58  x_59  x_60  x_61  x_62  x_63  x_64  x_65 
 x_66  x_67  x_68  x_69  x_70  x_71  x_72  x_73  x_74  x_75  x_76  x_77  x_78 
 x_79  x_80  x_81  x_82  x_83  x_84  x_85  x_86  x_87  x_88  x_89  x_90  x_91 
 x_92  x_93  x_94  x_95  x_96  x_97  x_98  x_99 
End
